c --- [ banner ] -------------------------------------------------------------
c 
c CaDiCaL SAT Solver
c Copyright (c) 2016-2024
c A. Biere, M. Fleury, N. Froleyks, K. Fazekas, F. Pollitt, T. Faller
c JKU Linz, University of Freiburg, TU Wien
c 
c Version 2.1.3 f13d74439a5b5c963ac5b02d05ce93a8098018b8
c g++ (Gentoo 12.3.1_p20230526 p2) 12.3.1 20230526 -Wall -Wextra -O3 -DNDEBUG
c Thu Apr 10 08:26:21 EDT 2025 Linux narval2.narval.calcul.quebec 4.18.0-553.40.1.el8_10.x86_64 x86_64
c 
c --- [ parsing input ] ------------------------------------------------------
c 
c reading DIMACS file from 'cnfs//3color_gnm_50.cnf'
c opening file to read 'cnfs//3color_gnm_50.cnf'
c found 'p cnf 150 500' header
c parsed 500 clauses in 0.00 seconds process time
c 
c --- [ options ] ------------------------------------------------------------
c 
c all options are set to their default value
c 
c --- [ solving ] ------------------------------------------------------------
c 
c time measured in process time since initialization
c 
c  seconds  reductions  redundant irredundant
c         MB    restarts       trail    variables
c          level   conflicts       glue     remaining
c 
c *  0.00  4  0 0   0    0    0  0% 0  500 150 100%
c l  0.00  4  0 0   0    0    0  0% 0  500 150 100%
c 1  0.00  4  0 0   0    0    0  0% 0  500 150 100%
c 
c --- [ result ] -------------------------------------------------------------
c 
s SATISFIABLE
v -1 -2 3 -4 5 -6 -7 -8 9 -10 11 -12 -13 14 -15 16 -17 -18 -19 20 -21 22 -23
v -24 -25 26 -27 -28 -29 30 -31 32 -33 34 -35 -36 -37 38 -39 -40 -41 42 -43
v -44 45 -46 47 -48 49 -50 -51 -52 53 -54 -55 56 -57 -58 59 -60 61 -62 -63 -64
v -65 66 67 -68 -69 -70 -71 72 -73 74 -75 -76 -77 78 -79 -80 81 -82 -83 84 -85
v 86 -87 -88 89 -90 91 -92 -93 -94 -95 96 97 -98 -99 -100 -101 102 103 -104
v -105 -106 -107 108 109 -110 -111 112 -113 -114 115 -116 -117 -118 119 -120
v -121 -122 123 124 -125 -126 -127 -128 129 -130 131 -132 -133 134 -135 -136
v -137 138 -139 -140 141 142 -143 -144 145 -146 -147 -148 -149 150 0
c 
c --- [ run-time profiling ] -------------------------------------------------
c 
c process time taken by individual solving procedures
c (percentage relative to process time for solving)
c 
c         0.00  219.08% parse
c         0.00   41.98% search
c         0.00   40.46% lucky
c         0.00    0.00% simplify
c   =================================
c         0.00   16.52% solve
c 
c last line shows process time for solving
c (percentage relative to total process time)
c 
c --- [ statistics ] ---------------------------------------------------------
c 
c lucky:                         1       100.00 %  of tried
c minimized:                     0         0.00 %  learned literals
c shrunken:                      0         0.00 %  learned literals
c minishrunken:                  0         0.00 %  learned literals
c propagations:                  0         0.00 M  per second
c 
c seconds are measured in process time for solving
c 
c --- [ resources ] ----------------------------------------------------------
c 
c total process time since initialization:         0.00    seconds
c total real time since initialization:            0.15    seconds
c maximum resident set size of process:            3.74    MB
c 
c --- [ shutting down ] ------------------------------------------------------
c 
c exit 10
